1 2
2 5
3 16
4 17
5 12
6 6
7 12
8 10
9 4
10 5
11 3
12 17
13 3
14 14
15 8
16 15
17 2
18 18
19 19
20 13
21 3
22 10
23 2
24 14
25 14
26 4
27 14
28 3
29 3
30 9
31 3
32 12
33 13
34 13
35 9
36 6
37 1
38 1
39 1
40 20
41 1
42 1
43 20
44 11
45 1
46 2
47 6
48 12
49 4
50 2
51 10
52 8
53 18
54 18
55 4
56 8
57 4
58 4
59 8
60 7
61 9
62 9
63 12
64 3
65 9
66 16
67 11
68 10
69 5
70 6
71 8
72 4
73 16
74 2
75 2
76 6
77 6
78 9
79 11
80 7
81 4
82 18
83 14
84 11
85 5
86 10
87 8
88 9
89 17
90 11
91 10
92 16
93 12
94 17
95 17
96 12
97 4
98 5
99 8
100 7
101 14
102 3
103 15
104 4
105 10
106 11
107 8
108 15
109 15
110 13
111 13
112 7
113 7
114 15
115 7
116 7
117 4
118 7
119 7
120 4
121 7
122 4
123 2
124 15
125 20
126 6
127 4
128 11
129 17
130 1
131 1
132 5
133 1
134 9
135 9
136 5
137 1
138 12
139 8
140 19
141 14
142 6
143 18
144 6
145 19
146 4
147 13
148 9
149 4
150 10
151 13
152 5
153 2
154 2
155 19
156 19
157 6
158 12
159 10
160 17
161 1
162 16
163 16
164 10
165 14
166 18
167 12
168 5
169 2
170 14
171 19
172 6
173 16
174 7
175 11
176 8
177 18
178 17
179 21
180 16
181 13
